10
0 6 44 75 70 49 36 62 80 45
6 0 89 32 74 36 7 84 74 95
44 89 0 28 24 61 59 36 45 85
75 32 28 0 54 64 61 50 45 25
70 74 24 54 0 77 61 75 66 72
49 36 61 64 77 0 26 62 61 24
36 7 59 61 61 26 0 63 81 67
62 84 36 50 75 62 63 0 45 55
80 74 45 45 66 61 81 45 0 46
45 95 85 25 72 24 67 55 46 0
